p cnf 19 62
-3 12 -15 0
-3 -11 19 0
9 10 -15 0
-4 -9 17 0
6 8 9 0
-1 -2 -19 0
-1 12 -18 0
9 -13 17 0
-5 7 -14 0
2 -14 -18 0
2 -13 17 0
-8 -9 13 0
-6 14 16 0
1 5 -12 0
3 13 -18 0
6 12 -18 0
-10 14 17 0
15 17 19 0
8 9 -19 0
-10 -17 18 0
-1 -5 -19 0
2 7 14 0
4 10 17 0
-3 14 15 0
-1 -3 18 0
8 10 19 0
1 3 -13 0
9 -12 14 0
-1 -4 -13 0
3 -15 -18 0
-9 12 -17 0
1 -8 -14 0
-7 16 -18 0
-1 -16 19 0
2 4 5 0
14 15 16 0
3 -5 -16 0
-4 -7 -13 0
3 6 -16 0
6 -12 -16 0
-12 -14 15 0
4 6 -10 0
-8 -10 -14 0
2 -7 -12 0
8 -9 11 0
5 -7 -9 0
8 13 17 0
-2 12 16 0
-5 7 -17 0
5 -10 13 0
-14 15 -17 0
-4 11 17 0
-1 5 -8 0
11 -17 -19 0
1 2 -4 0
3 13 19 0
6 8 15 0
9 -13 15 0
4 -10 -12 0
-7 8 -13 0
5 7 -13 0
2 9 -13 0
